c This is a random SAT instance with 10 variables and 20 clauses
p cnf 10 20
1 3 -7 -8 0
-9 -8 10 -2 -3 1 7 -6 3 0
-1 -2 7 -7 0
5 -8 -5 -10 -7 -4 6 10 0
10 2 -4 0
6 -5 0
-10 0
-9 -1 -10 7 -6 6 -5 -7 0
9 3 -8 5 -9 0
-5 -7 -2 6 -10 5 4 9 1 7 0
10 -5 -2 -6 6 0
4 0
-1 8 -5 0
-5 9 10 6 -10 0
5 7 -8 3 -9 -10 -3 4 0
3 -10 0
-1 0
-6 -2 -10 4 6 -3 8 0
3 -8 -9 6 -2 7 -5 0
-9 2 1 -2 0